\ LP format - for model browsing. Use MPS format to capture full model detail.
Minimize
  X[0] + X[1] + X[2] + X[3] + X[4] + X[5] + X[6] + X[7] + X[8] + X[9]
   + X[10] + X[11] + X[12] + X[13] + X[14] + X[15] + X[16] + X[17] + X[18]
   + X[19] + X[20] + X[21] + X[22] + X[23] + X[24] + X[25] + X[26] + X[27]
   + X[28] + X[29] + X[30] + X[31] + X[32] + X[33] + X[34] + X[35] + X[36]
   + X[37] + X[38] + X[39] + X[40] + X[41] + X[42] + X[43] + X[44] + X[45]
   + X[46] + X[47] + X[48] + X[49] + X[50] + X[51] + X[52] + X[53] + X[54]
   + X[55] + X[56] + X[57] + X[58] + X[59] + X[60] + X[61] + X[62] + X[63]
   + X[64] + X[65] + X[66] + X[67] + X[68] + X[69] + X[70] + X[71] + X[72]
   + X[73] + X[74] + X[75] + X[76] + X[77] + X[78] + X[79] + X[80] + X[81]
   + X[82] + X[83] + X[84] + X[85] + X[86] + X[87] + X[88] + X[89] + X[90]
   + X[91] + X[92] + X[93]
Subject To
 R0: X[4] + X[7] + 2 X[8] + X[10] + X[11] + X[12] + 3 X[13] + X[15] + X[16]
   + X[19] + X[22] + X[24] + X[25] + X[26] + X[30] + X[31] + X[32]
   + 2 X[33] + 2 X[34] + X[38] + 2 X[39] + 2 X[40] + X[43] + X[44]
   + 2 X[45] + 2 X[46] + X[53] + X[54] + X[60] + X[61] + X[62] + X[69]
   >= 1000
 R1: 2 X[1] + X[2] + X[4] + X[6] + X[7] + X[9] + X[11] + X[17] + X[18]
   + X[20] + X[21] + X[27] + X[35] + X[41] + X[56] + X[59] + X[68] >= 1500
 R2: 2 X[3] + X[5] + X[6] + X[10] + X[14] + X[15] + X[22] + X[23] + X[28]
   + X[29] + X[36] + X[37] + X[42] + X[50] + X[51] + X[52] + X[55] >= 2000
 R3: 2 X[9] + 2 X[14] + 2 X[16] + X[17] + 2 X[19] + X[20] + X[23] + X[24]
   + 2 X[26] + X[28] + X[30] + X[32] + X[33] + X[36] + X[39] + X[43]
   + 3 X[47] + 4 X[48] + 3 X[49] + X[53] + X[55] + 3 X[57] + 3 X[58]
   + X[59] + 2 X[63] + X[64] + 2 X[65] + X[66] + 2 X[67] + X[68] + X[69]
   + X[70] + X[71] + X[72] + X[73] + X[74] + X[75] + X[76] + 2 X[77]
   + 2 X[78] + 2 X[79] + 2 X[80] + X[85] >= 2500
 R4: 2 X[7] + X[11] + 2 X[15] + 4 X[18] + 2 X[19] + 2 X[20] + 6 X[21]
   + X[22] + 5 X[25] + X[26] + 2 X[27] + 2 X[28] + 4 X[29] + 3 X[30]
   + 7 X[31] + 5 X[32] + 3 X[34] + 5 X[35] + 3 X[36] + 6 X[37] + 8 X[38]
   + X[39] + 4 X[40] + X[41] + 5 X[42] + 4 X[43] + 6 X[44] + 2 X[45]
   + X[46] + 2 X[49] + 2 X[50] + X[51] + 3 X[52] + 2 X[53] + 3 X[54]
   + X[55] + 3 X[56] + 3 X[57] + X[58] + 3 X[59] + 4 X[60] + 2 X[61]
   + X[62] + 4 X[65] + 5 X[66] + 6 X[67] + X[68] + X[69] + 8 X[70]
   + 9 X[71] + 7 X[72] + 6 X[73] + 3 X[74] + 2 X[75] + 4 X[76] + 5 X[77]
   + 2 X[78] + X[79] + 3 X[80] + 4 X[81] + 2 X[82] + 6 X[83] + 3 X[84]
   + X[85] + 7 X[86] + 10 X[87] + 9 X[88] + 12 X[89] + 11 X[90] + 5 X[91]
   + X[92] + 8 X[93] >= 1200
Bounds
End
